&CONTROL
  calculation = 'scf'
  outdir = './'
  prefix = 'CO'
  pseudo_dir = './'
  wf_collect = .true.
/
&SYSTEM
  ecutwfc =  70
  ibrav = 0
  nat = 2
  ntyp = 2
  nbnd = 8
  nosym = .true.
/
&ELECTRONS
/
ATOMIC_SPECIES
C       1.201070000000000e1  C.pbe-n-kjpaw_psl.1.0.0.UPF
O       1.599940000000000e1  O.pbe-n-kjpaw_psl.1.0.0.UPF
ATOMIC_POSITIONS crystal
C            0.5000000000       0.4100000000       0.5000000000
O            0.5000000000       0.5900000000       0.5000000000
K_POINTS automatic
1 1 1 0 0 0
CELL_PARAMETERS angstrom
      8.0000000000       0.0000000000       0.0000000000
      0.0000000000       8.0000000000       0.0000000000
      0.0000000000       0.0000000000       8.0000000000

