CO
 1.0
 8.0 0.0 0.0
 0.0 8.0 0.0
 0.0 0.0 8.0
C O
1 1
Direct
0.5 0.41 0.5
0.5 0.59 0.5