%Chk=F1a_ortho.chk
#P RHF/6-31G* Opt

COMMENT

0  1
C          -6.65830        -1.57560        -0.31680
C          -6.20290        -0.70770        -1.29810
C          -7.68120         0.94940        -0.52530
C          -8.15370         0.10650         0.46190
C          -7.63780        -1.17110         0.56910
H          -6.27400        -2.58710        -0.20460
H          -5.43430        -1.07920        -1.96410
H          -8.09920         1.93820        -0.58710
H          -8.91820         0.41210         1.15880
H          -8.02160        -1.80950         1.34600
N          -6.23110         1.45080        -2.42990
N          -5.06500         1.91930        -2.31730
C          -4.28510         1.53110        -1.17050
C          -4.61990         2.02530         0.07150
C          -3.21920         0.68150        -1.29130
C          -3.89590         1.67240         1.17550
H          -5.48000         2.70900         0.16070
C          -2.47260         0.31220        -0.17960
H          -2.95380         0.29090        -2.26960
C          -2.80330         0.80280         1.05750
H          -4.15440         2.05820         2.15710
H          -1.65840        -0.36290        -0.35360
C          -6.70450         0.57080        -1.42200
C          -0.98650        -0.39310         2.10140
H          -0.55950        -0.55200         3.13440
H          -1.24730        -1.41220         1.72140
C           0.06640         0.21290         1.24850
C           1.23810        -0.38620         0.79960
H           1.52090        -1.40180         1.02750
N           0.12420         1.46730         0.73070
N           1.23390         1.59770         0.03620
N           1.94630         0.47750         0.05500
C           3.22420         0.25930        -0.60270
H           3.35910        -0.80840        -0.86790
H           3.26600         0.83380        -1.52920
C           4.32300         0.64500         0.36670
H           4.29040         0.00990         1.27340
H           4.20970         1.69650         0.70080
C           5.68520         0.42550        -0.30020
O           5.77730        -0.91940        -0.63070
H           5.79090         1.11030        -1.16630
C           6.78520         0.73590         0.72270
H           6.64970         0.07020         1.58700
H           6.73950         1.80320         1.00640
O           7.99710         0.40310         0.08110
C           8.11870        -0.95370        -0.37280
C           7.02280        -1.62170        -0.72930
C           7.11960        -2.89810        -1.15840
H           6.40880        -3.61810        -1.48840
S           8.90990        -3.24720        -1.07330
C           9.34610        -1.58740        -0.45060
H          10.35240        -1.26750        -0.22590
O          -2.08780         0.45720         2.17440


--Link1--
%Chk=F1a_ortho.chk
#P HF/6-31G* SCF=Tight Geom=AllCheck Guess=Read
	Pop=MK IOp(6/33=2, 6/41=10, 6/42=17)