%Chk=F1a_ortho.chk
#P RHF/6-31G* Opt

TEXT

0  1
C           7.14970         1.44620        -1.54840
C           6.59180         0.36430        -2.21650
C           5.99140        -0.66740        -0.18610
C           6.54940         0.41500         0.48980
C           7.13180         1.47930        -0.16100
H           7.60520         2.27820        -2.06590
H           6.61390         0.35380        -3.29590
H           5.53760        -1.49630         0.33230
H           6.53760         0.44450         1.56700
H           7.56290         2.31650         0.38520
N           5.47240        -1.74810        -2.34560
N           4.21750        -1.85350        -2.42130
C           3.42960        -0.90880        -1.71160
C           2.77470        -1.29700        -0.56220
C           3.28160         0.39350        -2.11460
C           1.99110        -0.40700         0.16710
H           2.85280        -2.32740        -0.18580
C           2.50840         1.28020        -1.39940
H           3.80640         0.67690        -3.02200
C           1.83660         0.90320        -0.23070
H           1.48570        -0.74700         1.08380
H           2.40610         2.30350        -1.73690
C           6.01020        -0.69830        -1.56070
C           0.36100         1.51530         1.62950
H           1.11020         1.15320         2.38680
H          -0.12410         2.38490         2.08860
C          -0.64030         0.45660         1.35040
C          -1.38760        -0.28710         2.21080
H          -1.36950        -0.23000         3.28370
N          -0.98400         0.05640         0.11400
N          -1.89670        -0.88620         0.20560
N          -2.16460        -1.11760         1.50080
C          -3.10610        -2.08310         2.03220
H          -3.22160        -2.95560         1.33610
H          -2.68890        -2.46420         2.99170
C          -4.45890        -1.48540         2.21260
H          -5.13260        -2.30380         2.60170
H          -4.43920        -0.74300         3.04050
C          -5.10050        -0.95860         0.97300
O          -4.37280         0.05770         0.34720
H          -5.29940        -1.75550         0.22090
C          -6.45480        -0.36280         1.33080
H          -6.34380         0.42680         2.08300
H          -7.12090        -1.16310         1.73080
O          -7.03430         0.18100         0.18670
C          -6.24890         0.71190        -0.89190
C          -4.93040         0.65040        -0.81130
C          -4.16270         1.16380        -1.85310
H          -3.07720         1.22740        -2.01100
S          -5.43050         1.76170        -2.99930
C          -6.83930         1.28000        -2.00040
H          -7.85410         1.43190        -2.27010
O           1.06860         1.83260         0.45460


--Link1--
%Chk=F1a_ortho.chk
#P HF/6-31G* SCF=Tight Geom=AllCheck Guess=Read
	Pop=MK IOp(6/33=2, 6/41=10, 6/42=17)