&CONTROL
  calculation = 'scf'
  prefix = 'NaCl'
  pseudo_dir = './../../PP'
  outdir = './'
  wf_collect = .true.
/
&SYSTEM
  degauss =   1.4699723600d-02
  ibrav= 0
  nat= 8
  ntyp= 2
  nbnd = 36
  ecutwfc = 40.0
  nosym = .TRUE., noinv = .TRUE.
  occupations = 'smearing'
  smearing = 'cold'
/
&ELECTRONS
/
ATOMIC_SPECIES
Cl     35.453 Cl.pbe-n-kjpaw_psl.1.0.0.UPF
Na     22.98977 Na.pbe-spn-kjpaw_psl.1.0.0.UPF
ATOMIC_POSITIONS {crystal}
Na           0.0000000000       0.0000000000       0.0000000000 
Na           0.0000000000       0.5000000000       0.5000000000 
Na           0.5000000000       0.0000000000       0.5000000000 
Na           0.5000000000       0.5000000000       0.0000000000 
Cl           0.5000000000       0.0000000000       0.0000000000 
Cl           0.5000000000       0.5000000000       0.5000000000 
Cl           0.0000000000       0.0000000000       0.5000000000 
Cl           0.0000000000       0.5000000000       0.0000000000 
K_POINTS {automatic}
6 6 6 0 0 0
CELL_PARAMETERS {angstrom}
     5.6015879890    0.00000000000    0.0000000000
     0.0000000000    5.60158798908    0.0000000000
     0.0000000000    0.00000000000    5.6015879890

