H2O                                     
   1.00000000000000     
     8.0000000000000000    0.0000000000000000    0.0000000000000000
     0.0000000000000000    8.0000000000000000    0.0000000000000000
     0.0000000000000000    0.0000000000000000    8.0000000000000000
   O    H 
     1     2
Direct
  0.5000000000000000  0.5000000000000000  0.5000000000000000
  0.6475000000000009  0.5000000000000000  0.5362500000000026
  0.5000000000000000  0.5000000000000000  0.3474999999999966
 
  0.00000000E+00  0.00000000E+00  0.00000000E+00
  0.00000000E+00  0.00000000E+00  0.00000000E+00
  0.00000000E+00  0.00000000E+00  0.00000000E+00
