! BP def2-SVP def2/J Opt UKS
%pal
nprocs 16
end

%geom
Constraints
{D 23 10 11 12 270.0 C }
end
end

* xyzfile 0 1 start_molecule.xyz